
Log started (V12.10.0.0) Fri Apr 23 09:07:52 2021


Problem 'asset.lp' read.
Read time = 0.01 sec. (0.91 ticks)
New value for default parallel thread count: 1
New value for time limit in seconds: 150
Version identifier: 12.10.0.0 | 2019-11-26 | 843d4de
CPXPARAM_Threads                                 1
CPXPARAM_TimeLimit                               150
Found incumbent of value 0.000000 after 0.00 sec. (0.22 ticks)
Tried aggregator 3 times.
MIP Presolve eliminated 4047 rows and 376 columns.
MIP Presolve modified 6007 coefficients.
Aggregator did 2506 substitutions.
Reduced MIP has 2484 rows, 3173 columns, and 14256 nonzeros.
Reduced MIP has 2877 binaries, 233 generals, 0 SOSs, and 0 indicators.
Presolve time = 0.03 sec. (38.66 ticks)
Probing fixed 174 vars, tightened 26 bounds.
Probing time = 0.03 sec. (25.29 ticks)
Cover probing fixed 0 vars, tightened 39 bounds.
Tried aggregator 1 time.
Detecting symmetries...
MIP Presolve eliminated 246 rows and 227 columns.
MIP Presolve modified 426 coefficients.
Reduced MIP has 2238 rows, 2946 columns, and 12959 nonzeros.
Reduced MIP has 2676 binaries, 207 generals, 0 SOSs, and 0 indicators.
Presolve time = 0.01 sec. (8.47 ticks)
Probing time = 0.00 sec. (3.67 ticks)
Clique table members: 8189.
MIP emphasis: balance optimality and feasibility.
MIP search method: dynamic search.
Parallel mode: none, using 1 thread.
Root relaxation solution time = 0.04 sec. (64.30 ticks)

        Nodes                                         Cuts/
   Node  Left     Objective  IInf  Best Integer    Best Bound    ItCnt     Gap

*     0+    0                            0.0000      890.0000              --- 
      0     0      791.7316   373        0.0000      791.7316     1011     --- 
      0     0      784.5979   373        0.0000     Cuts: 659     2387     --- 
      0     0      782.5000   373        0.0000     Cuts: 659     3163     --- 
      0     0      782.5000   373        0.0000     Cuts: 659     4125     --- 
*     0+    0                          100.0000      782.5000           682.50%
*     0+    0                          115.0000      782.5000           580.43%
      0     0        cutoff            115.0000      782.5000     4125  580.43%
      0     0      782.5000   373      115.0000     Cuts: 110     4591  580.43%
      0     0      782.5000   373      115.0000     Cuts: 659     5425  580.43%
Detecting symmetries...
*     0+    0                          245.0000      782.5000           219.39%
*     0+    0                          260.0000      782.5000           200.96%
*     0+    0                          345.0000      782.5000           126.81%
*     0+    0                          355.0000      782.5000           120.42%
*     0+    0                          360.0000      782.5000           117.36%
      0     0        cutoff            360.0000      782.5000     5425  117.36%
Detecting symmetries...
      0     2      782.5000   312      360.0000      782.5000     5425  117.36%
Elapsed time = 1.53 sec. (2120.99 ticks, tree = 0.01 MB, solutions = 7)
     10    12      782.5000   280      360.0000      782.5000     7933  117.36%
     33    29      779.8049   286      360.0000      782.5000    10291  117.36%
     54    46      779.8336   227      360.0000      782.5000    12199  117.36%
     80    70      768.0451   225      360.0000      782.5000    14141  117.36%
    107    95      716.3524   208      360.0000      782.5000    18225  117.36%
    158   137      665.0000   159      360.0000      782.5000    21917  117.36%
    260   206      625.0000   102      360.0000      782.5000    25240  117.36%
    264   207      781.8738   332      360.0000      782.5000    26909  117.36%
    271   214      776.1425   321      360.0000      782.5000    29501  117.36%
    302   245      709.7770   228      360.0000      782.5000    39905  117.36%
Elapsed time = 3.95 sec. (5462.23 ticks, tree = 0.69 MB, solutions = 7)
    353   289      772.2837   259      360.0000      782.5000    48261  117.36%
    414   350      773.4673   285      360.0000      782.5000    57146  117.36%
*   519+  452                          425.0000      782.5000            84.12%
*   519+  452                          430.0000      782.5000            81.98%
*   519+  452                          435.0000      782.5000            79.89%
    519   454      778.3524   333      435.0000      782.5000    69132   79.89%
*   520+  453                          475.0000      782.5000            64.74%
*   520+  453                          480.0000      782.5000            63.02%
*   520+  453                          485.0000      782.5000            61.34%
    520   455      779.8386   354      485.0000      782.5000    70358   61.34%
    544   479      736.8997   301      485.0000      782.5000    79188   61.34%

Performing restart 1

Repeating presolve.
Tried aggregator 2 times.
MIP Presolve modified 3943 coefficients.
Aggregator did 9 substitutions.
Reduced MIP has 2229 rows, 2937 columns, and 10604 nonzeros.
Reduced MIP has 2667 binaries, 207 generals, 0 SOSs, and 0 indicators.
Presolve time = 0.01 sec. (11.94 ticks)
Tried aggregator 1 time.
Reduced MIP has 2229 rows, 2937 columns, and 10604 nonzeros.
Reduced MIP has 2667 binaries, 207 generals, 0 SOSs, and 0 indicators.
Presolve time = 0.01 sec. (7.32 ticks)
Represolve time = 0.07 sec. (59.89 ticks)
    630     0      768.7135   460      485.0000     Cuts: 601    94966   58.50%
    630     0      764.0405   460      485.0000     Cuts: 424    97722   57.53%
    630     0      760.5678   460      485.0000     Cuts: 424   102234   56.82%
    630     0      756.9434   460      485.0000     Cuts: 411   105816   56.07%
    630     0      749.1419   460      485.0000     Cuts: 333   110719   54.46%
    630     0      747.0912   460      485.0000     Cuts: 431   117170   54.04%
    630     0      743.7794   460      485.0000     Cuts: 316   120582   53.36%
    630     0      741.8750   460      485.0000     Cuts: 338   124954   52.96%
    630     0      741.7296   460      485.0000     Cuts: 254   133643   52.93%
    630     0      740.9772   460      485.0000     Cuts: 342   136914   52.78%
    630     0      740.3958   460      485.0000     Cuts: 239   138722   52.66%
    630     0      739.5441   460      485.0000     Cuts: 301   143449   52.48%
    630     0      739.2257   460      485.0000     Cuts: 355   146568   52.42%
    630     0      738.1357   460      485.0000     Cuts: 254   148622   52.19%
    630     0      737.4548   460      485.0000     Cuts: 308   153977   52.05%
    630     0      737.2779   460      485.0000     Cuts: 309   156180   52.02%
    630     0      736.8915   460      485.0000     Cuts: 233   160265   51.94%
    630     0      736.3656   460      485.0000     Cuts: 269   162389   51.83%
    630     0      735.7035   460      485.0000     Cuts: 309   165011   51.69%
    630     0      735.2254   460      485.0000     Cuts: 322   167265   51.59%
    630     0      734.9154   460      485.0000     Cuts: 379   170400   51.53%
    630     0      734.8137   460      485.0000     Cuts: 302   171117   51.51%
    630     0      734.7376   460      485.0000     Cuts: 342   171519   51.49%
    630     0      734.2867   460      485.0000     Cuts: 221   172231   51.40%
    630     0      734.1759   460      485.0000     Cuts: 302   174290   51.38%
    630     0      733.8473   460      485.0000     Cuts: 256   175578   51.31%
    630     0      733.5000   460      485.0000     Cuts: 300   177630   51.24%
    630     0      732.6211   460      485.0000     Cuts: 358   181732   51.06%
    630     0      732.0071   460      485.0000     Cuts: 320   184030   50.93%
    630     0      731.6409   460      485.0000     Cuts: 378   187003   50.85%
    630     0      731.4532   460      485.0000     Cuts: 249   188878   50.82%
    630     0      730.9703   460      485.0000     Cuts: 292   191644   50.72%
    630     0      730.8111   460      485.0000     Cuts: 295   194485   50.68%
    630     0      730.5571   460      485.0000     Cuts: 216   194966   50.63%
    630     0      730.5264   460      485.0000     Cuts: 334   197516   50.62%
    630     0      730.4680   460      485.0000     Cuts: 181   197896   50.61%
    630     0      730.3806   460      485.0000     Cuts: 243   198536   50.59%
    630     2      730.3806   426      485.0000      730.3645   198536   50.59%
    633     5      710.8574   388      485.0000      730.0420   205916   50.52%
    635     7      729.8773   395      485.0000      730.0420   209492   50.52%
    637     9      728.7675   453      485.0000      730.0420   219851   50.52%
    638    10      721.6571   388      485.0000      730.0420   227554   50.52%
Elapsed time = 47.77 sec. (64195.51 ticks, tree = 0.04 MB, solutions = 13)
    640    12      727.9935   447      485.0000      730.0420   231508   50.52%
    642    14      727.7436   458      485.0000      730.0420   236278   50.52%
    645    17      727.4045   409      485.0000      730.0420   240700   50.52%
    647    19      719.7269   381      485.0000      730.0420   246473   50.52%
    650    22      726.7309   416      485.0000      730.0420   252707   50.52%
    654    26      726.5975   355      485.0000      730.0420   257669   50.52%
    659    31      716.5621   362      485.0000      730.0420   263851   50.52%
    660    32      725.4542   397      485.0000      730.0420   264453   50.52%
    666    38      722.6213   350      485.0000      730.0420   269629   50.52%
    671    43      699.8637   299      485.0000      730.0420   273204   50.52%
Elapsed time = 56.46 sec. (77418.43 ticks, tree = 0.39 MB, solutions = 13)
    675    47      719.8237   341      485.0000      730.0420   280455   50.52%
    679    51      709.8056   327      485.0000      730.0420   285541   50.52%
    680    52      717.5000   389      485.0000      730.0420   287317   50.52%
    688    60      715.0000   360      485.0000      730.0420   290361   50.52%
    694    66      715.0000   342      485.0000      730.0420   294584   50.52%
    700    72      714.3453   305      485.0000      730.0420   298176   50.52%
    710    80      712.4237   289      485.0000      730.0420   300748   50.52%
    721    89      709.8444   271      485.0000      730.0420   303688   50.52%
*   730+   96                          515.0000      730.0420            41.76%
*   730+   96                          520.0000      730.0420            40.39%
*   730+   96                          525.0000      730.0420            39.06%
*   730+   96                          530.0000      730.0420            37.74%
    730    98      707.8546   306      530.0000      730.0420   307598   37.74%
    739   106      698.3329   266      530.0000      730.0420   311775   37.74%
Elapsed time = 65.86 sec. (91696.76 ticks, tree = 1.63 MB, solutions = 17)
    751   118      696.4959   263      530.0000      730.0420   315634   37.74%
    764   129      653.5941   185      530.0000      730.0420   319365   37.74%
    777   139      659.1371   188      530.0000      730.0420   320949   37.74%
    783   140      725.3704   464      530.0000      729.8765   330330   37.71%
    785   142      723.7347   424      530.0000      729.8765   335633   37.71%
    787   144      711.4147   413      530.0000      729.8765   344391   37.71%
    789   146      711.8717   415      530.0000      729.8765   350401   37.71%
    790   147      721.9281   454      530.0000      729.8765   355808   37.71%
    795   152      720.8818   412      530.0000      729.8765   360977   37.71%
    799   156      716.3398   414      530.0000      729.8765   365418   37.71%
Elapsed time = 76.63 sec. (107650.42 ticks, tree = 2.76 MB, solutions = 17)
    804   161      720.7474   426      530.0000      729.8765   369099   37.71%
    809   166      718.1483   406      530.0000      729.8765   373734   37.71%
    813   170      710.2324   385      530.0000      729.8765   378076   37.71%
    818   175      708.1117   390      530.0000      729.8765   385758   37.71%
    823   180      716.2801   398      530.0000      729.8765   392106   37.71%
    830   185    infeasible            530.0000      729.8765   396915   37.71%
    836   191      706.4959   373      530.0000      729.8765   402668   37.71%
    839   194      713.0181   387      530.0000      729.8765   409181   37.71%
    847   202      712.1041   357      530.0000      729.8765   415625   37.71%
    854   209      713.7853   373      530.0000      729.8765   418624   37.71%
Elapsed time = 84.06 sec. (118999.12 ticks, tree = 3.46 MB, solutions = 17)
    860   215      710.8859   376      530.0000      729.8765   426560   37.71%
    866   219      709.6208   317      530.0000      729.8765   432918   37.71%
    870   223      705.3019   381      530.0000      729.8765   440103   37.71%
    872   225      698.6117   337      530.0000      729.8765   451373   37.71%
    885   238      697.7090   307      530.0000      729.8765   455322   37.71%
    895   248      695.2343   312      530.0000      729.8765   460157   37.71%
    910   263      681.3133   304      530.0000      729.8765   465421   37.71%
    921   274      671.0424   261      530.0000      729.8765   471225   37.71%
    930   283      670.4235   251      530.0000      729.8765   472404   37.71%
    959   312      662.4588   259      530.0000      729.8765   476494   37.71%
Elapsed time = 93.38 sec. (132658.86 ticks, tree = 3.68 MB, solutions = 17)
    990   343      661.8903   258      530.0000      729.8765   480268   37.71%
*  1030+  381                          535.0000      729.8765            36.43%
*  1030+  381                          540.0000      729.8765            35.16%
*  1030+  381                          575.0000      729.8765            26.94%
   1030   383      658.6030   258      575.0000      729.8765   483135   26.94%
   1058   402        cutoff            575.0000      729.8765   488177   26.94%
   1072   410      724.2209   420      575.0000      729.4143   493012   26.85%
   1073   411      718.3375   454      575.0000      728.9764   499831   26.78%
   1080   418      717.3940   383      575.0000      728.9764   502749   26.78%
   1089   427      716.4742   415      575.0000      728.9764   506978   26.78%
   1095   433      715.1604   390      575.0000      728.9764   512827   26.78%
   1098   436      715.0000   443      575.0000      728.9764   518319   26.78%
   1102   440      713.9072   395      575.0000      728.9764   523791   26.78%
Elapsed time = 103.19 sec. (146468.90 ticks, tree = 3.87 MB, solutions = 20)
   1107   445      711.8201   387      575.0000      728.9764   529598   26.78%
   1110   448      711.0658   379      575.0000      728.9764   532029   26.78%
   1114   452      700.6858   353      575.0000      728.9764   539389   26.78%
   1121   459      700.0000   334      575.0000      728.9764   545378   26.78%
   1130   468      698.5773   375      575.0000      728.9764   551035   26.78%
   1147   485      684.6280   301      575.0000      728.9764   558710   26.78%
   1160   498      678.2814   282      575.0000      728.9764   563073   26.78%
   1201   535      728.5350   403      575.0000      728.5019   568734   26.70%
   1213   547      727.4767   432      575.0000      728.4930   574656   26.69%
   1220   554      724.7903   384      575.0000      728.4930   580539   26.69%
Elapsed time = 112.32 sec. (159271.08 ticks, tree = 4.08 MB, solutions = 20)
   1230   564      723.8258   361      575.0000      728.4930   584873   26.69%
   1249   583      718.2367   377      575.0000      728.4930   592703   26.69%
   1274   608      710.8285   353      575.0000      728.4930   599890   26.69%
   1288   622      703.3052   323      575.0000      728.4930   605767   26.69%
   1325   659      696.8464   309      575.0000      728.4930   611768   26.69%
   1330   664      693.8297   297      575.0000      728.4930   613215   26.69%
   1390   718      664.8250   239      575.0000      728.4930   619963   26.69%
   1406   729      720.3418   382      575.0000      728.4930   622635   26.69%
   1409   732      706.4691   366      575.0000      728.4930   628721   26.69%
   1430   753      708.0755   360      575.0000      728.4930   646114   26.69%
Elapsed time = 123.55 sec. (174786.04 ticks, tree = 4.40 MB, solutions = 20)
   1481   804      695.9563   277      575.0000      728.4930   675566   26.69%
   1530   852      669.0353   280      575.0000      728.4930   696487   26.69%
   1608   914      719.8128   387      575.0000      728.4930   720405   26.69%
   1674   980      667.7370   277      575.0000      728.4930   742051   26.69%
   1722  1024      692.0757   300      575.0000      728.4904   763140   26.69%
Starting limited solution polishing.
   1799  1095      701.1121   320      575.0000      728.4862   787614   26.69%
   1895  1187      693.7637   369      575.0000      728.4626   815245   26.69%
   1930  1222      665.6789   282      575.0000      728.4626   831551   26.69%
   1959  1247      710.5171   384      575.0000      728.4472   855027   26.69%

GUB cover cuts applied:  192
Clique cuts applied:  59
Cover cuts applied:  32
Implied bound cuts applied:  52
Flow cuts applied:  16
Mixed integer rounding cuts applied:  113
Zero-half cuts applied:  101
Lift and project cuts applied:  4
Gomory fractional cuts applied:  2

Root node processing (before b&c):
  Real time             =    1.51 sec. (2103.91 ticks)
Sequential b&c:
  Real time             =  148.49 sec. (210935.62 ticks)
                          ------------
Total (root+branch&cut) =  150.00 sec. (213039.53 ticks)

Solution pool: 21 solutions saved.

MIP - Time limit exceeded, integer feasible:  Objective =  5.7500000000e+02
Current MIP best bound =  7.2844721830e+02 (gap = 153.447, 26.69%)
Solution time =  150.00 sec.  Iterations = 871929  Nodes = 1976 (1263)
Deterministic time = 213039.55 ticks  (1420.25 ticks/sec)


Incumbent solution
Variable Name           Solution Value
F                           575.000000
y64                           1.000000
y43                           1.000000
y42                           1.000000
y12                           1.000000
y147                          1.000000
y2                            1.000000
y115                          1.000000
y87                           1.000000
y153                          1.000000
y55                           1.000000
y73                           1.000000
y70                           1.000000
y29                           1.000000
y135                          1.000000
y107                          1.000000
y218                          1.000000
y120                          1.000000
y215                          1.000000
y17                           1.000000
y143                          1.000000
y199                          1.000000
y40                           1.000000
y98                           1.000000
y121                          1.000000
y145                          1.000000
y72                           1.000000
y157                          1.000000
y45                           1.000000
y126                          1.000000
y186                          1.000000
y217                          1.000000
y20                           1.000000
y83                           1.000000
y97                           1.000000
y225                          1.000000
y59                           1.000000
y4                            1.000000
y56                           1.000000
y69                           1.000000
y74                           1.000000
x155x43x1                     1.000000
x88x215x1                     1.000000
x227x147x1                    1.000000
x34x64x1                      1.000000
x85x87x1                      1.000000
x196x55x1                     1.000000
x196x135x1                    1.000000
x142x115x1                    1.000000
x71x43x1                      1.000000
x8x73x1                       1.000000
x244x115x1                    1.000000
x244x29x1                     1.000000
x150x153x2                    2.000000
x26x70x2                      1.000000
x88x120x2                     1.000000
x227x73x2                     1.000000
x5x29x2                       1.000000
x109x17x2                     1.000000
x71x135x2                     1.000000
x76x218x2                     1.000000
x8x2x2                        1.000000
x204x42x2                     2.000000
x238x12x3                     1.000000
x238x147x3                    1.000000
x155x2x3                      1.000000
x26x215x3                     1.000000
x34x64x3                      1.000000
x5x55x3                       1.000000
x85x87x3                      1.000000
x201x12x3                     1.000000
x201x120x3                    1.000000
x109x107x3                    1.000000
x142x218x3                    1.000000
x76x70x3                      1.000000
x64x186x1                     1.000000
x64x121x3                     1.000000
x43x107x1                     1.000000
x43x40x1                      1.000000
x42x199x2                     1.000000
x42x145x2                     1.000000
x12x17x3                      1.000000
x12x186x3                     1.000000
x147x199x1                    1.000000
x147x145x3                    1.000000
x2x40x2                       1.000000
x2x143x3                      1.000000
x115x72x1                     1.000000
x115x45x1                     1.000000
x87x59x1                      1.000000
x87x45x3                      1.000000
x153x126x2                    1.000000
x153x83x2                     1.000000
x55x217x1                     1.000000
x55x225x3                     1.000000
x73x143x1                     1.000000
x73x59x2                      1.000000
x70x126x2                     1.000000
x70x157x3                     1.000000
x29x157x1                     1.000000
x29x83x2                      1.000000
x135x225x1                    1.000000
x135x72x2                     1.000000
x107x20x1                     1.000000
x107x20x3                     1.000000
x218x97x2                     1.000000
x218x98x3                     1.000000
x120x97x2                     1.000000
x120x98x3                     1.000000
x215x217x1                    1.000000
x215x121x3                    1.000000
x17x69x2                      1.000000
x17x0x3                       1.000000
x143x74x1                     1.000000
x143x0x3                      1.000000
x199x0x1                      1.000000
x199x0x2                      1.000000
x40x56x1                      1.000000
x40x56x2                      1.000000
x98x0x3                       2.000000
x121x0x3                      2.000000
x145x69x2                     1.000000
x145x0x3                      1.000000
x72x0x1                       1.000000
x72x0x2                       1.000000
x157x0x1                      1.000000
x157x0x3                      1.000000
x45x0x1                       1.000000
x45x0x3                       1.000000
x126x0x2                      2.000000
x186x4x1                      1.000000
x186x4x3                      1.000000
x217x0x1                      2.000000
x20x0x1                       1.000000
x20x0x3                       1.000000
x83x0x2                       2.000000
x97x0x2                       2.000000
x225x0x1                      1.000000
x225x0x3                      1.000000
x59x0x1                       1.000000
x59x74x2                      1.000000
x4x0x1                        1.000000
x4x0x3                        1.000000
x56x0x1                       1.000000
x56x0x2                       1.000000
x69x0x2                       2.000000
x74x0x1                       1.000000
x74x0x2                       1.000000
s150                          6.062759
s228                          6.460000
s2                            6.744911
s153                          7.531327
z150z153z2                    1.000000
s73                           6.920793
s70                           7.549445
s29                           7.628421
s135                          7.373341
s218                          7.524953
s120                          7.378677
s17                           7.936992
s194                          8.230000
s199                          8.258983
s156                          7.540000
s40                           8.117589
s189                          8.710000
z150z189z2                    1.000000
s145                          8.324625
s72                           8.900000
s126                          8.930000
z150z126z2                    1.000000
s83                           9.120000
z150z83z2                     1.000000
s97                           9.150000
z150z97z2                     1.000000
s59                           8.266877
s56                           9.310000
s164                          9.380000
z150z164z2                    1.000000
s69                           9.410000
z150z69z2                     1.000000
s74                           9.480000
s238                          4.879530
s37                           5.790000
s32                           7.076674
s81                           7.177885
s140                          7.186229
s90                           7.115793
s78                           6.240000
s236                          7.077199
z238z236z3                    1.000000
s220                          7.237424
z238z220z3                    1.000000
s165                          6.410000
s96                           6.440000
s12                           6.817735
z238z12z3                     1.000000
s68                           6.460000
s147                          6.938913
z238z147z3                    1.000000
s77                           6.600000
s87                           6.967248
s55                           7.310415
s172                          7.890000
z238z172z3                    1.000000
s107                          7.901245
s215                          7.467035
s143                          8.180000
s148                          7.210000
z238z148z3                    1.000000
s205                          7.220000
s160                          8.290000
z238z160z3                    1.000000
s44                           7.440000
z238z44z3                     1.000000
s206                          8.680000
z238z206z3                    1.000000
s98                           8.730000
z238z98z3                     1.000000
s121                          8.740000
z238z121z3                    1.000000
s157                          8.910000
s45                           8.930000
s186                          8.211127
s20                           9.030000
s225                          9.210000
s4                            9.250000
s155                          4.762050
s209                          6.252598
s58                           5.320000
s93                           5.330000
s39                           5.380000
s64                           6.340400
s47                           6.386559
s43                           6.241590
z155z43z1                     1.000000
s190                          6.401111
s86                           5.550000
z155z12z3                     1.000000
z155z2z3                      1.000000
s115                          7.262122
z155z115z1                    1.000000
z155z77z3                     1.000000
s19                           6.650000
z155z19z1                     1.000000
s176                          7.254752
z155z176z1                    1.000000
z155z172z3                    1.000000
s193                          7.805584
z155z193z1                    1.000000
s132                          8.110000
z155z132z1                    1.000000
z155z148z3                    1.000000
z155z160z3                    1.000000
z155z44z3                     1.000000
z155z206z3                    1.000000
z155z98z3                     1.000000
z155z121z3                    1.000000
s217                          8.856676
z155z217z1                    1.000000
s229                          9.440000
z155z229z1                    1.000000
s26                           5.166870
z26z70z2                      1.000000
z26z215z3                     1.000000
z26z206z3                     1.000000
z26z189z2                     1.000000
z26z98z3                      1.000000
z26z121z3                     1.000000
z26z126z2                     1.000000
z26z83z2                      1.000000
z26z97z2                      1.000000
z26z164z2                     1.000000
z26z69z2                      1.000000
s88                           5.133470
z88z120z2                     1.000000
z88z215z1                     1.000000
z88z189z2                     1.000000
z88z126z2                     1.000000
z88z217z1                     1.000000
z88z83z2                      1.000000
z88z97z2                      1.000000
z88z164z2                     1.000000
z88z69z2                      1.000000
z88z229z1                     1.000000
s227                          4.972380
s42                           6.765421
z227z147z1                    1.000000
z227z73z2                     1.000000
z227z193z1                    1.000000
z227z132z1                    1.000000
z227z189z2                    1.000000
z227z126z2                    1.000000
z227z217z1                    1.000000
z227z83z2                     1.000000
z227z97z2                     1.000000
z227z164z2                    1.000000
z227z69z2                     1.000000
z227z229z1                    1.000000
s34                           5.008500
z34z64z1                      1.000000
z34z64z3                      1.000000
z34z77z3                      1.000000
z34z193z1                     1.000000
z34z132z1                     1.000000
z34z148z3                     1.000000
z34z160z3                     1.000000
z34z44z3                      1.000000
z34z206z3                     1.000000
z34z98z3                      1.000000
z34z121z3                     1.000000
z34z217z1                     1.000000
z34z229z1                     1.000000
s5                            5.278530
z5z55z3                       1.000000
z5z29z2                       1.000000
z5z189z2                      1.000000
z5z126z2                      1.000000
z5z83z2                       1.000000
z5z97z2                       1.000000
z5z164z2                      1.000000
z5z69z2                       1.000000
s85                           5.206510
z85z87z1                      1.000000
z85z87z3                      1.000000
z85z193z1                     1.000000
z85z132z1                     1.000000
z85z148z3                     1.000000
z85z160z3                     1.000000
z85z44z3                      1.000000
z85z206z3                     1.000000
z85z98z3                      1.000000
z85z121z3                     1.000000
z85z217z1                     1.000000
z85z229z1                     1.000000
s196                          5.367940
z196z176z1                    1.000000
z196z55z1                     1.000000
z196z135z1                    1.000000
z196z217z1                    1.000000
z196z229z1                    1.000000
s201                          5.170150
z201z12z3                     1.000000
z201z120z3                    1.000000
z201z148z3                    1.000000
z201z160z3                    1.000000
z201z44z3                     1.000000
z201z206z3                    1.000000
z201z98z3                     1.000000
z201z121z3                    1.000000
s109                          5.833500
z109z107z3                    1.000000
z109z17z2                     1.000000
z109z206z3                    1.000000
z109z189z2                    1.000000
z109z98z3                     1.000000
z109z126z2                    1.000000
z109z83z2                     1.000000
z109z97z2                     1.000000
z109z164z2                    1.000000
z109z69z2                     1.000000
s142                          5.893700
z142z115z1                    1.000000
z142z218z3                    1.000000
z142z98z3                     1.000000
z142z217z1                    1.000000
z142z229z1                    1.000000
s71                           5.034580
s62                           5.410000
z71z43z1                      1.000000
z71z115z1                     1.000000
z71z19z1                      1.000000
z71z176z1                     1.000000
z71z135z2                     1.000000
z71z193z1                     1.000000
z71z132z1                     1.000000
z71z189z2                     1.000000
z71z126z2                     1.000000
z71z217z1                     1.000000
z71z83z2                      1.000000
z71z97z2                      1.000000
z71z164z2                     1.000000
z71z69z2                      1.000000
z71z229z1                     1.000000
s76                           5.697870
z76z70z3                      1.000000
z76z218z2                     1.000000
z76z206z3                     1.000000
z76z189z2                     1.000000
z76z98z3                      1.000000
z76z121z3                     1.000000
z76z126z2                     1.000000
z76z83z2                      1.000000
z76z97z2                      1.000000
z76z164z2                     1.000000
z76z69z2                      1.000000
s8                            5.136350
z8z2z2                        1.000000
z8z19z1                       1.000000
z8z176z1                      1.000000
z8z73z1                       1.000000
z8z193z1                      1.000000
z8z132z1                      1.000000
z8z189z2                      1.000000
z8z126z2                      1.000000
z8z217z1                      1.000000
z8z83z2                       1.000000
z8z97z2                       1.000000
z8z164z2                      1.000000
z8z69z2                       1.000000
z8z229z1                      1.000000
s204                          5.322080
z204z42z2                     1.000000
z204z189z2                    1.000000
z204z126z2                    1.000000
z204z83z2                     1.000000
z204z97z2                     1.000000
z204z164z2                    1.000000
z204z69z2                     1.000000
s244                          5.822460
z244z115z1                    1.000000
z244z176z1                    1.000000
z244z29z1                     1.000000
z244z217z1                    1.000000
z244z229z1                    1.000000
z209z217z1                    1.000000
z209z229z1                    1.000000
z58z217z1                     1.000000
z58z229z1                     1.000000
z93z83z2                      1.000000
z93z164z2                     1.000000
z93z69z2                      1.000000
z64z121z3                     1.000000
z64z186z1                     1.000000
z64z229z1                     1.000000
z62z83z2                      1.000000
z62z164z2                     1.000000
z62z69z2                      1.000000
z47z217z1                     1.000000
z47z229z1                     1.000000
z43z107z1                     1.000000
z43z193z1                     1.000000
z43z40z1                      1.000000
z43z229z1                     1.000000
z190z217z1                    1.000000
z190z83z2                     1.000000
z190z164z2                    1.000000
z190z69z2                     1.000000
z190z229z1                    1.000000
z86z217z1                     1.000000
z86z83z2                      1.000000
z86z164z2                     1.000000
z86z69z2                      1.000000
z86z229z1                     1.000000
z37z164z2                     1.000000
z37z69z2                      1.000000
z42z199z2                     1.000000
z42z145z2                     1.000000
z42z164z2                     1.000000
z42z69z2                      1.000000
z81z164z2                     1.000000
z81z69z2                      1.000000
z140z164z2                    1.000000
z140z69z2                     1.000000
z12z17z3                      1.000000
z12z160z3                     1.000000
z12z186z3                     1.000000
z228z164z2                    1.000000
z228z69z2                     1.000000
z228z229z1                    1.000000
z147z199z1                    1.000000
z147z145z3                    1.000000
z147z229z1                    1.000000
z2z143z3                      1.000000
z2z40z2                       1.000000
z2z164z2                      1.000000
z2z69z2                       1.000000
z115z72z1                     1.000000
z115z45z1                     1.000000
z115z229z1                    1.000000
z19z229z1                     1.000000
z87z45z3                      1.000000
z87z59z1                      1.000000
z87z229z1                     1.000000
z153z126z2                    1.000000
z153z83z2                     1.000000
z153z164z2                    1.000000
z153z69z2                     1.000000
z176z229z1                    1.000000
z55z217z1                     1.000000
z55z225z3                     1.000000
z55z229z1                     1.000000
z73z143z1                     1.000000
z73z59z2                      1.000000
z73z229z1                     1.000000
z70z157z3                     1.000000
z70z126z2                     1.000000
z70z164z2                     1.000000
z70z69z2                      1.000000
z29z157z1                     1.000000
z29z83z2                      1.000000
z29z164z2                     1.000000
z29z69z2                      1.000000
z29z229z1                     1.000000
z135z72z2                     1.000000
z135z225z1                    1.000000
z135z164z2                    1.000000
z135z69z2                     1.000000
z135z229z1                    1.000000
z107z20z1                     1.000000
z107z20z3                     1.000000
z107z229z1                    1.000000
z218z98z3                     1.000000
z218z97z2                     1.000000
z120z98z3                     1.000000
z120z97z2                     1.000000
z193z229z1                    1.000000
z132z229z1                    1.000000
z215z121z3                    1.000000
z215z217z1                    1.000000
z17z69z2                      1.000000
z143z229z1                    1.000000
z143z74z1                     1.000000
z44z206z3                     1.000000
z44z121z3                     1.000000
z40z56z1                      1.000000
z40z56z2                      1.000000
z145z69z2                     1.000000
z186z4z1                      1.000000
z186z4z3                      1.000000
z59z74z2                      1.000000
All other variables in the range 1-6058 are 0.
